105
150
119	5
118	4
117	7
116	5
115	5
114	1
113	2
112	2
111	6
110	6
109	6
108	5
107	4
106	3
105	5
104	4
103	8
102	8
101	7
100	3
99	1
98	2
97	1
96	7
95	7
94	6
93	5
92	4
91	5
90	8
89	6
88	4
87	7
86	4
85	4
84	9
83	6
82	4
81	2
80	5
79	4
78	2
77	7
76	5
75	4
74	6
73	6
72	4
71	3
70	3
69	7
68	5
67	4
66	2
65	9
64	6
63	6
62	7
61	2
60	5
59	5
58	3
57	2
56	7
55	6
54	1
53	1
52	4
51	9
50	1
49	1
48	11
47	6
46	4
45	9
44	6
43	6
42	6
41	4
40	5
39	5
38	2
37	5
36	7
35	6
34	3
33	7
32	5
31	4
30	7
29	2
28	3
27	3
26	5
25	5
24	6
23	5
22	4
21	5
20	3
19	4
18	3
17	4
16	4
15	6
